Minimize
  - 3 y_0 - 8 y_1 - 9 y_2 - 8 y_3 - 9 y_5 - 9 y_6 - 8 y_7 - 7 y_8 - 5 y_9
   - 6 y_10 - 10 y_11 - 4 y_13 - y_14 - 3 y_15 - 6 y_16 - 8 y_17 - 8 y_18
   - 5 y_19 + 48 x_0_3 + 30 x_0_4 + 57 x_0_5 + 75 x_0_6 + 50 x_0_7
   + 25 x_0_9 + 38 x_0_10 + 71 x_0_11 + 25 x_0_12 + 36 x_0_14 + 70 x_0_17
   + 48 x_0_19 + 56 x_1_3 + 3 x_1_5 + 23 x_1_8 + 31 x_1_11 + 56 x_1_13
   + 83 x_1_14 + 53 x_1_16 + 51 x_1_18 + 57 x_1_19 + 17 x_2_11 + 81 x_2_12
   + 87 x_2_14 + 59 x_2_15 + 42 x_2_16 + 80 x_2_17 + 54 x_3_5 + 52 x_3_10
   + 71 x_3_12 + 31 x_3_13 + 84 x_3_14 + 58 x_3_15 + 105 x_3_17 + 86 x_4_6
   + 80 x_4_7 + 67 x_4_8 + 47 x_4_9 + 64 x_4_10 + 14 x_4_14 + 76 x_4_17
   + 54 x_4_19 + 58 x_5_6 + 18 x_5_7 + 63 x_5_9 + 28 x_5_11 + 80 x_5_12
   + 85 x_5_14 + 57 x_5_15 + 52 x_5_16 + 60 x_5_19 + 66 x_6_8 + 96 x_6_9
   + 50 x_6_10 + 86 x_6_11 + 93 x_6_16 + 99 x_6_18 + 33 x_6_19 + 13 x_7_8
   + 26 x_7_10 + 82 x_7_14 + 35 x_7_16 + 78 x_7_17 + 32 x_7_18 + 67 x_7_19
   + 62 x_8_12 + 40 x_8_15 + 31 x_8_16 + 70 x_8_17 + 56 x_8_19 + 67 x_9_11
   + 9 x_9_13 + 57 x_9_14 + 93 x_9_17 + 32 x_9_18 + 46 x_10_11 + 41 x_10_13
   + 35 x_10_15 + 49 x_10_18 + 97 x_11_12 + 41 x_11_18 + 15 x_12_14
   + 24 x_12_15 + 57 x_12_16 + 73 x_12_17 + 72 x_12_18 + 51 x_12_19
   + 29 x_13_15 + 17 x_13_16 + 69 x_14_16 + 65 x_14_17 + 84 x_14_18
   + 37 x_15_19 + 15 x_16_18 + 75 x_16_19 + 117 Constant
Subject To
 c_0: y_9 = 1
 c_1_0: y_0 >= 1
 c_1_1: y_1 + y_5 >= 1
 c_1_2: y_2 + y_7 >= 1
 c_1_3: y_3 + y_18 >= 1
 c_1_4: y_4 + y_12 >= 1
 c_1_5: y_1 + y_5 >= 1
 c_1_6: y_6 >= 1
 c_1_7: y_2 + y_7 >= 1
 c_1_8: y_8 >= 1
 c_1_9: y_9 + y_13 >= 1
 c_1_10: y_10 >= 1
 c_1_11: y_11 >= 1
 c_1_12: y_4 + y_12 >= 1
 c_1_13: y_9 + y_13 >= 1
 c_1_14: y_14 >= 1
 c_1_15: y_15 >= 1
 c_1_16: y_16 >= 1
 c_1_17: y_17 >= 1
 c_1_18: y_3 + y_18 >= 1
 c_1_19: y_19 >= 1
 c_2_0: - 2 y_0 + x_0_3 + x_0_4 + x_0_5 + x_0_6 + x_0_7 + x_0_9 + x_0_10
   + x_0_11 + x_0_12 + x_0_14 + x_0_17 + x_0_19 = 0
 c_2_1: - 2 y_1 + x_1_3 + x_1_5 + x_1_8 + x_1_11 + x_1_13 + x_1_14 + x_1_16
   + x_1_18 + x_1_19 = 0
 c_2_2: - 2 y_2 + x_2_11 + x_2_12 + x_2_14 + x_2_15 + x_2_16 + x_2_17 = 0
 c_2_3: - 2 y_3 + x_0_3 + x_1_3 + x_3_5 + x_3_10 + x_3_12 + x_3_13 + x_3_14
   + x_3_15 + x_3_17 = 0
 c_2_4: - 2 y_4 + x_0_4 + x_4_6 + x_4_7 + x_4_8 + x_4_9 + x_4_10 + x_4_14
   + x_4_17 + x_4_19 = 0
 c_2_5: - 2 y_5 + x_0_5 + x_1_5 + x_3_5 + x_5_6 + x_5_7 + x_5_9 + x_5_11
   + x_5_12 + x_5_14 + x_5_15 + x_5_16 + x_5_19 = 0
 c_2_6: - 2 y_6 + x_0_6 + x_4_6 + x_5_6 + x_6_8 + x_6_9 + x_6_10 + x_6_11
   + x_6_16 + x_6_18 + x_6_19 = 0
 c_2_7: - 2 y_7 + x_0_7 + x_4_7 + x_5_7 + x_7_8 + x_7_10 + x_7_14 + x_7_16
   + x_7_17 + x_7_18 + x_7_19 = 0
 c_2_8: - 2 y_8 + x_1_8 + x_4_8 + x_6_8 + x_7_8 + x_8_12 + x_8_15 + x_8_16
   + x_8_17 + x_8_19 = 0
 c_2_9: - 2 y_9 + x_0_9 + x_4_9 + x_5_9 + x_6_9 + x_9_11 + x_9_13 + x_9_14
   + x_9_17 + x_9_18 = 0
 c_2_10: - 2 y_10 + x_0_10 + x_3_10 + x_4_10 + x_6_10 + x_7_10 + x_10_11
   + x_10_13 + x_10_15 + x_10_18 = 0
 c_2_11: - 2 y_11 + x_0_11 + x_1_11 + x_2_11 + x_5_11 + x_6_11 + x_9_11
   + x_10_11 + x_11_12 + x_11_18 = 0
 c_2_12: - 2 y_12 + x_0_12 + x_2_12 + x_3_12 + x_5_12 + x_8_12 + x_11_12
   + x_12_14 + x_12_15 + x_12_16 + x_12_17 + x_12_18 + x_12_19 = 0
 c_2_13: - 2 y_13 + x_1_13 + x_3_13 + x_9_13 + x_10_13 + x_13_15 + x_13_16
   = 0
 c_2_14: - 2 y_14 + x_0_14 + x_1_14 + x_2_14 + x_3_14 + x_4_14 + x_5_14
   + x_7_14 + x_9_14 + x_12_14 + x_14_16 + x_14_17 + x_14_18 = 0
 c_2_15: - 2 y_15 + x_2_15 + x_3_15 + x_5_15 + x_8_15 + x_10_15 + x_12_15
   + x_13_15 + x_15_19 = 0
 c_2_16: - 2 y_16 + x_1_16 + x_2_16 + x_5_16 + x_6_16 + x_7_16 + x_8_16
   + x_12_16 + x_13_16 + x_14_16 + x_16_18 + x_16_19 = 0
 c_2_17: - 2 y_17 + x_0_17 + x_2_17 + x_3_17 + x_4_17 + x_7_17 + x_8_17
   + x_9_17 + x_12_17 + x_14_17 = 0
 c_2_18: - 2 y_18 + x_1_18 + x_6_18 + x_7_18 + x_9_18 + x_10_18 + x_11_18
   + x_12_18 + x_14_18 + x_16_18 = 0
 c_2_19: - 2 y_19 + x_0_19 + x_1_19 + x_4_19 + x_5_19 + x_6_19 + x_7_19
   + x_8_19 + x_12_19 + x_15_19 + x_16_19 = 0
Bounds
 Constant = 1
Binaries
 y_0 y_1 y_2 y_3 y_4 y_5 y_6 y_7 y_8 y_9 y_10 y_11 y_12 y_13 y_14 y_15 y_16
 y_17 y_18 y_19 x_0_3 x_0_4 x_0_5 x_0_6 x_0_7 x_0_9 x_0_10 x_0_11 x_0_12
 x_0_14 x_0_17 x_0_19 x_1_3 x_1_5 x_1_8 x_1_11 x_1_13 x_1_14 x_1_16 x_1_18
 x_1_19 x_2_11 x_2_12 x_2_14 x_2_15 x_2_16 x_2_17 x_3_5 x_3_10 x_3_12
 x_3_13 x_3_14 x_3_15 x_3_17 x_4_6 x_4_7 x_4_8 x_4_9 x_4_10 x_4_14 x_4_17
 x_4_19 x_5_6 x_5_7 x_5_9 x_5_11 x_5_12 x_5_14 x_5_15 x_5_16 x_5_19 x_6_8
 x_6_9 x_6_10 x_6_11 x_6_16 x_6_18 x_6_19 x_7_8 x_7_10 x_7_14 x_7_16 x_7_17
 x_7_18 x_7_19 x_8_12 x_8_15 x_8_16 x_8_17 x_8_19 x_9_11 x_9_13 x_9_14
 x_9_17 x_9_18 x_10_11 x_10_13 x_10_15 x_10_18 x_11_12 x_11_18 x_12_14
 x_12_15 x_12_16 x_12_17 x_12_18 x_12_19 x_13_15 x_13_16 x_14_16 x_14_17
 x_14_18 x_15_19 x_16_18 x_16_19
End
